100 4 100
90 85 64 14 94 99 62 30 58 58 89 25 44 87 47 73 70 85 29 38 27 32 75 23 34 26 85 67 21 39 44 63 77 60 30 71 60 92 53 18 50 42 96 95 81 95 20 4 80 1 42 60 33 69 83 68 95 68 87 68 59 84 31 36 44 13 59 56 5 12 27 8 7 75 55 88 70 27 44 2 28 86 14 13 7 97 81 54 17 21 22 77 5 6 65 1 19 77 58 77 
